<?xml version = "1.0" standalone="yes"?>
<!-- This file has been generated by DOcplex version 2.23.222  -->
<CPLEXSolution version="1.0">
 <header
   problemName="CVRP"
   objectiveValue="11206.1"
  />
 <variables>
  <variable name="x_0_3" index="2" value="1.00000"/>
  <variable name="x_0_5" index="4" value="1.00000"/>
  <variable name="x_0_6" index="5" value="1.00000"/>
  <variable name="x_0_7" index="6" value="1.00000"/>
  <variable name="x_0_8" index="7" value="1.00000"/>
  <variable name="x_0_9" index="8" value="1.00000"/>
  <variable name="x_0_10" index="9" value="1.00000"/>
  <variable name="x_0_12" index="11" value="1.00000"/>
  <variable name="x_0_14" index="13" value="1.00000"/>
  <variable name="x_0_15" index="14" value="1.00000"/>
  <variable name="x_0_17" index="16" value="1.00000"/>
  <variable name="x_1_0" index="19" value="1.00000"/>
  <variable name="x_2_11" index="48" value="1.00000"/>
  <variable name="x_3_16" index="72" value="1.00000"/>
  <variable name="x_4_2" index="78" value="1.00000"/>
  <variable name="x_5_0" index="95" value="1.00000"/>
  <variable name="x_6_1" index="115" value="1.00000"/>
  <variable name="x_7_19" index="151" value="1.00000"/>
  <variable name="x_8_13" index="164" value="1.00000"/>
  <variable name="x_9_0" index="171" value="1.00000"/>
  <variable name="x_10_0" index="190" value="1.00000"/>
  <variable name="x_11_0" index="209" value="1.00000"/>
  <variable name="x_12_0" index="228" value="1.00000"/>
  <variable name="x_13_18" index="264" value="1.00000"/>
  <variable name="x_14_0" index="266" value="1.00000"/>
  <variable name="x_15_0" index="285" value="1.00000"/>
  <variable name="x_16_0" index="304" value="1.00000"/>
  <variable name="x_17_4" index="327" value="1.00000"/>
  <variable name="x_18_0" index="342" value="1.00000"/>
  <variable name="x_19_0" index="361" value="1.00000"/>
  <variable name="u_1" index="380" value="35.00000"/>
  <variable name="u_2" index="381" value="23.00000"/>
  <variable name="u_3" index="382" value="31.00000"/>
  <variable name="u_4" index="383" value="19.00000"/>
  <variable name="u_5" index="384" value="39.00000"/>
  <variable name="u_6" index="385" value="29.00000"/>
  <variable name="u_7" index="386" value="34.00000"/>
  <variable name="u_8" index="387" value="8.00000"/>
  <variable name="u_9" index="388" value="20.00000"/>
  <variable name="u_10" index="389" value="27.00000"/>
  <variable name="u_11" index="390" value="36.00000"/>
  <variable name="u_12" index="391" value="21.00000"/>
  <variable name="u_13" index="392" value="24.00000"/>
  <variable name="u_14" index="393" value="36.00000"/>
  <variable name="u_15" index="394" value="30.00000"/>
  <variable name="u_16" index="395" value="37.00000"/>
  <variable name="u_17" index="396" value="7.00000"/>
  <variable name="u_18" index="397" value="39.00000"/>
  <variable name="u_19" index="398" value="36.00000"/>
 </variables>
</CPLEXSolution>
